1111100 AB
315 327 339 351 362 373 384 395 406 416 446 426 436 456 465 474 492 501 510 519 528 537 483 546 555 564 582 592 573 652 692 742 782 792 802 812 822 832 842 905 965 985 995 1005 1015 1024 1033 1042 1052 1131 1169 1211 1297 1323 1389 1430 1402
1111100 BA
315 335 355 401 412 375 390 422 432 442 452 472 462 482 492 502 512 522 532 542 582 592 552 562 572 632 712 772 832 851 956 994 1003 1012 1039 1102 1187 1250 1274 1312 1325 1352 1367 1382 7 37 67
0000011 AB
315 345 370 395 415 445 475 430 460 489 515 528 502 541 554 567 580 593 619 667 679 763 839 852 912 948 985 1050 1089 1101 1114 1126 1139 1151 1164 1177 1193 1225 1281 1301 1321 1341 1400 1420
0000011 BA
315 335 355 390 410 375 450 430 470 530 490 510 565 578 550 591 604 617 630 643 656 681 705 761 809 892 944 1004 1077 1090 1103 1116 1129 1142 1169 1182 1195 1156 1208 1221 1234 1247 1301 1260 1273 1315 1330 1350 1370 1390 1410 30 50 10
